(set-logic QF_UF)
(declare-fun A0 () Bool)
(declare-fun A1 () Bool)
(declare-fun A2 () Bool)
(declare-fun A3 () Bool)
(declare-fun A4 () Bool)
(declare-fun A5 () Bool)
(declare-fun A7 () Bool)
(declare-fun A8 () Bool)
(declare-fun A9 () Bool)
(declare-fun A11 () Bool)
(declare-fun A12 () Bool)
(declare-fun A13 () Bool)
(declare-fun A14 () Bool)
(declare-fun A15 () Bool)
(declare-fun A16 () Bool)
(declare-fun A17 () Bool)
(declare-fun A18 () Bool)
(declare-fun A19 () Bool)
(declare-fun A20 () Bool)
(declare-fun A21 () Bool)
(declare-fun A22 () Bool)
(declare-fun A23 () Bool)
(declare-fun A24 () Bool)
(assert (let ((.def_0 (not A24))) (let ((.def_1 (or .def_0 A20))) (let ((.def_2 (not .def_1))) (let ((.def_3 (not A18))) (let ((.def_4 (or A8 .def_3))) (let ((.def_5 (not .def_4))) (let ((.def_6 (and .def_5 .def_2))) (let ((.def_7 (not A14))) (let ((.def_8 (and A9 .def_7))) (let ((.def_9 (and .def_3 A14))) (let ((.def_10 (or .def_9 .def_8))) (let ((.def_11 (or .def_10 .def_6))) (let ((.def_12 (not A15))) (let ((.def_13 (or .def_12 A11))) (let ((.def_14 (not .def_13))) (let ((.def_15 (not A0))) (let ((.def_16 (and .def_15 .def_3))) (let ((.def_17 (or .def_16 .def_14))) (let ((.def_18 (not .def_17))) (let ((.def_19 (not A7))) (let ((.def_20 (or A20 .def_19))) (let ((.def_21 (or .def_7 A7))) (let ((.def_22 (not .def_21))) (let ((.def_23 (and .def_22 .def_20))) (let ((.def_24 (and .def_23 .def_18))) (let ((.def_25 (not .def_24))) (let ((.def_26 (or .def_25 .def_11))) (let ((.def_27 (not .def_26))) (let ((.def_28 (not A4))) (let ((.def_29 (and A24 .def_28))) (let ((.def_30 (and A20 .def_3))) (let ((.def_31 (not .def_30))) (let ((.def_32 (and .def_31 .def_29))) (let ((.def_33 (not .def_32))) (let ((.def_34 (not A8))) (let ((.def_35 (or A16 .def_34))) (let ((.def_36 (not A21))) (let ((.def_37 (or A22 .def_36))) (let ((.def_38 (not .def_37))) (let ((.def_39 (and .def_38 .def_35))) (let ((.def_40 (= .def_39 .def_33))) (let ((.def_41 (not .def_40))) (let ((.def_42 (and A11 A1))) (let ((.def_43 (and .def_28 A7))) (let ((.def_44 (or .def_43 .def_42))) (let ((.def_45 (or A23 A8))) (let ((.def_46 (and .def_28 A24))) (let ((.def_47 (not .def_46))) (let ((.def_48 (or .def_47 .def_45))) (let ((.def_49 (or .def_48 .def_44))) (let ((.def_50 (and .def_49 .def_41))) (let ((.def_51 (not .def_50))) (let ((.def_52 (or .def_51 .def_27))) (let ((.def_53 (and A15 A9))) (let ((.def_54 (not .def_53))) (let ((.def_55 (not A9))) (let ((.def_56 (not A17))) (let ((.def_57 (= .def_56 .def_55))) (let ((.def_58 (not .def_57))) (let ((.def_59 (and .def_58 .def_54))) (let ((.def_60 (not A1))) (let ((.def_61 (and .def_60 A9))) (let ((.def_62 (not .def_61))) (let ((.def_63 (or .def_56 A12))) (let ((.def_64 (or .def_63 .def_62))) (let ((.def_65 (not .def_64))) (let ((.def_66 (and .def_65 .def_59))) (let ((.def_67 (not A2))) (let ((.def_68 (or .def_67 .def_55))) (let ((.def_69 (and .def_28 A19))) (let ((.def_70 (or .def_69 .def_68))) (let ((.def_71 (not A5))) (let ((.def_72 (or .def_71 .def_36))) (let ((.def_73 (= A5 A13))) (let ((.def_74 (or .def_73 .def_72))) (let ((.def_75 (not .def_74))) (let ((.def_76 (and .def_75 .def_70))) (let ((.def_77 (and .def_76 .def_66))) (let ((.def_78 (not .def_77))) (let ((.def_79 (or A0 .def_3))) (let ((.def_80 (not .def_79))) (let ((.def_81 (not A12))) (let ((.def_82 (or .def_81 A2))) (let ((.def_83 (not .def_82))) (let ((.def_84 (or .def_83 .def_80))) (let ((.def_85 (not A3))) (let ((.def_86 (or .def_85 .def_67))) (let ((.def_87 (or A5 .def_28))) (let ((.def_88 (or .def_87 .def_86))) (let ((.def_89 (and .def_88 .def_84))) (let ((.def_90 (not A19))) (let ((.def_91 (and .def_90 A8))) (let ((.def_92 (not .def_91))) (let ((.def_93 (or .def_3 .def_19))) (let ((.def_94 (not .def_93))) (let ((.def_95 (or .def_94 .def_92))) (let ((.def_96 (not .def_95))) (let ((.def_97 (not A16))) (let ((.def_98 (or A20 .def_97))) (let ((.def_99 (not A13))) (let ((.def_100 (or .def_99 .def_28))) (let ((.def_101 (or .def_100 .def_98))) (let ((.def_102 (and .def_101 .def_96))) (let ((.def_103 (not .def_102))) (let ((.def_104 (and .def_103 .def_89))) (let ((.def_105 (not .def_104))) (let ((.def_106 (and .def_105 .def_78))) (let ((.def_107 (not .def_106))) (let ((.def_108 (and .def_107 .def_52))) (let ((.def_109 (not .def_108))) .def_109)))))))))))))))))))))))))))))))))))))))))))))))))))))))))))))))))))))))))))))))))))))))))))))))))))))))))))))))
(check-sat)
